(set-info :smt-lib-version 2.6)
(set-logic QF_AX)
(set-info :source |
Benchmarks used in the followin paper:
Big proof engines as little proof engines: new results on rewrite-based satisfiability procedure
Alessandro Armando, Maria Paola Bonacina, Silvio Ranise, Stephan Schulz. 
PDPAR'05
http://www.ai.dist.unige.it/pdpar05/


|)
(set-info :category "crafted")
(set-info :status sat)
(declare-sort Index 0)
(declare-sort Element 0)
(declare-fun a_1168 () (Array Index Element))
(declare-fun a_1170 () (Array Index Element))
(declare-fun a_1172 () (Array Index Element))
(declare-fun a_1174 () (Array Index Element))
(declare-fun a_1176 () (Array Index Element))
(declare-fun a_1178 () (Array Index Element))
(declare-fun a_1180 () (Array Index Element))
(declare-fun a_1182 () (Array Index Element))
(declare-fun a_1184 () (Array Index Element))
(declare-fun a_1186 () (Array Index Element))
(declare-fun a_1188 () (Array Index Element))
(declare-fun a_1190 () (Array Index Element))
(declare-fun a_1192 () (Array Index Element))
(declare-fun a_1194 () (Array Index Element))
(declare-fun a_1196 () (Array Index Element))
(declare-fun a_1198 () (Array Index Element))
(declare-fun a_1200 () (Array Index Element))
(declare-fun a_1202 () (Array Index Element))
(declare-fun a_1204 () (Array Index Element))
(declare-fun a_1206 () (Array Index Element))
(declare-fun a_1207 () (Array Index Element))
(declare-fun a_1208 () (Array Index Element))
(declare-fun a_1210 () (Array Index Element))
(declare-fun a_1212 () (Array Index Element))
(declare-fun a_1214 () (Array Index Element))
(declare-fun a_1216 () (Array Index Element))
(declare-fun a_1218 () (Array Index Element))
(declare-fun a_1220 () (Array Index Element))
(declare-fun a_1222 () (Array Index Element))
(declare-fun a_1224 () (Array Index Element))
(declare-fun a_1226 () (Array Index Element))
(declare-fun a_1228 () (Array Index Element))
(declare-fun a_1230 () (Array Index Element))
(declare-fun a_1232 () (Array Index Element))
(declare-fun a_1234 () (Array Index Element))
(declare-fun a_1236 () (Array Index Element))
(declare-fun a_1238 () (Array Index Element))
(declare-fun a_1240 () (Array Index Element))
(declare-fun a_1242 () (Array Index Element))
(declare-fun a_1244 () (Array Index Element))
(declare-fun e_1167 () Element)
(declare-fun e_1169 () Element)
(declare-fun e_1171 () Element)
(declare-fun e_1173 () Element)
(declare-fun e_1175 () Element)
(declare-fun e_1177 () Element)
(declare-fun e_1179 () Element)
(declare-fun e_1181 () Element)
(declare-fun e_1183 () Element)
(declare-fun e_1185 () Element)
(declare-fun e_1187 () Element)
(declare-fun e_1189 () Element)
(declare-fun e_1191 () Element)
(declare-fun e_1193 () Element)
(declare-fun e_1195 () Element)
(declare-fun e_1197 () Element)
(declare-fun e_1199 () Element)
(declare-fun e_1201 () Element)
(declare-fun e_1203 () Element)
(declare-fun e_1205 () Element)
(declare-fun e_1209 () Element)
(declare-fun e_1211 () Element)
(declare-fun e_1213 () Element)
(declare-fun e_1215 () Element)
(declare-fun e_1217 () Element)
(declare-fun e_1219 () Element)
(declare-fun e_1221 () Element)
(declare-fun e_1223 () Element)
(declare-fun e_1225 () Element)
(declare-fun e_1227 () Element)
(declare-fun e_1229 () Element)
(declare-fun e_1231 () Element)
(declare-fun e_1233 () Element)
(declare-fun e_1235 () Element)
(declare-fun e_1237 () Element)
(declare-fun e_1239 () Element)
(declare-fun e_1241 () Element)
(declare-fun e_1243 () Element)
(declare-fun a1 () (Array Index Element))
(declare-fun i0 () Index)
(declare-fun i1 () Index)
(declare-fun i2 () Index)
(declare-fun i3 () Index)
(declare-fun i4 () Index)
(declare-fun i5 () Index)
(declare-fun i6 () Index)
(declare-fun i7 () Index)
(declare-fun i8 () Index)
(declare-fun i9 () Index)
(assert (= a_1168 (store a1 i8 e_1167)))
(assert (= a_1170 (store a_1168 i0 e_1169)))
(assert (= a_1172 (store a_1170 i4 e_1171)))
(assert (= a_1174 (store a_1172 i5 e_1173)))
(assert (= a_1176 (store a_1174 i9 e_1175)))
(assert (= a_1178 (store a_1176 i2 e_1177)))
(assert (= a_1180 (store a_1178 i5 e_1179)))
(assert (= a_1182 (store a_1180 i4 e_1181)))
(assert (= a_1184 (store a_1182 i3 e_1183)))
(assert (= a_1186 (store a_1184 i0 e_1185)))
(assert (= a_1188 (store a_1186 i3 e_1187)))
(assert (= a_1190 (store a_1188 i4 e_1189)))
(assert (= a_1192 (store a_1190 i9 e_1191)))
(assert (= a_1194 (store a_1192 i7 e_1193)))
(assert (= a_1196 (store a_1194 i5 e_1195)))
(assert (= a_1198 (store a_1196 i1 e_1197)))
(assert (= a_1200 (store a_1198 i8 e_1199)))
(assert (= a_1202 (store a_1200 i1 e_1201)))
(assert (= a_1204 (store a_1202 i5 e_1203)))
(assert (= a_1206 (store a_1204 i7 e_1205)))
(assert (= a_1207 (store a1 i0 e_1169)))
(assert (= a_1208 (store a_1207 i8 e_1167)))
(assert (= a_1210 (store a_1208 i5 e_1209)))
(assert (= a_1212 (store a_1210 i4 e_1211)))
(assert (= a_1214 (store a_1212 i9 e_1213)))
(assert (= a_1216 (store a_1214 i2 e_1215)))
(assert (= a_1218 (store a_1216 i4 e_1217)))
(assert (= a_1220 (store a_1218 i5 e_1219)))
(assert (= a_1222 (store a_1220 i0 e_1221)))
(assert (= a_1224 (store a_1222 i3 e_1223)))
(assert (= a_1226 (store a_1224 i3 e_1225)))
(assert (= a_1228 (store a_1226 i4 e_1227)))
(assert (= a_1230 (store a_1228 i7 e_1229)))
(assert (= a_1232 (store a_1230 i9 e_1231)))
(assert (= a_1234 (store a_1232 i1 e_1233)))
(assert (= a_1236 (store a_1234 i5 e_1235)))
(assert (= a_1238 (store a_1236 i8 e_1237)))
(assert (= a_1240 (store a_1238 i1 e_1239)))
(assert (= a_1242 (store a_1240 i7 e_1241)))
(assert (= a_1244 (store a_1242 i6 e_1243)))
(assert (= e_1167 (select a1 i0)))
(assert (= e_1169 (select a1 i8)))
(assert (= e_1171 (select a_1170 i5)))
(assert (= e_1173 (select a_1170 i4)))
(assert (= e_1175 (select a_1174 i2)))
(assert (= e_1177 (select a_1174 i9)))
(assert (= e_1179 (select a_1178 i4)))
(assert (= e_1181 (select a_1178 i5)))
(assert (= e_1183 (select a_1182 i0)))
(assert (= e_1185 (select a_1182 i3)))
(assert (= e_1187 (select a_1186 i4)))
(assert (= e_1189 (select a_1186 i3)))
(assert (= e_1191 (select a_1190 i7)))
(assert (= e_1193 (select a_1190 i9)))
(assert (= e_1195 (select a_1194 i1)))
(assert (= e_1197 (select a_1194 i5)))
(assert (= e_1199 (select a_1198 i1)))
(assert (= e_1201 (select a_1198 i8)))
(assert (= e_1203 (select a_1202 i7)))
(assert (= e_1205 (select a_1202 i5)))
(assert (= e_1209 (select a_1208 i4)))
(assert (= e_1211 (select a_1208 i5)))
(assert (= e_1213 (select a_1212 i2)))
(assert (= e_1215 (select a_1212 i9)))
(assert (= e_1217 (select a_1216 i5)))
(assert (= e_1219 (select a_1216 i4)))
(assert (= e_1221 (select a_1220 i3)))
(assert (= e_1223 (select a_1220 i0)))
(assert (= e_1225 (select a_1224 i4)))
(assert (= e_1227 (select a_1224 i3)))
(assert (= e_1229 (select a_1228 i9)))
(assert (= e_1231 (select a_1228 i7)))
(assert (= e_1233 (select a_1232 i5)))
(assert (= e_1235 (select a_1232 i1)))
(assert (= e_1237 (select a_1236 i1)))
(assert (= e_1239 (select a_1236 i8)))
(assert (= e_1241 (select a_1240 i6)))
(assert (= e_1243 (select a_1240 i7)))
(assert (not (= a_1206 a_1244)))
(check-sat)
(exit)
